
Gurobi 11.0.3 (linux64) logging started Mon Nov 25 01:16:00 2024

Set parameter LogFile to value "/home/yihong/Coding/OR_SUC/SUC_results_bigM100000_thread4/case24_ieee_rts_theta0.5_epsilon0.025_gurobi_seed1230000_num_gen100_N_WDR100_load_scaling_factor1_exact_T28quadra_cost.txt"
Set parameter TimeLimit to value 3600
Gurobi Optimizer version 11.0.3 build v11.0.3rc0 (linux64 - "Ubuntu 20.04.6 LTS")

CPU model: AMD EPYC 7532 32-Core Processor, instruction set [SSE2|AVX|AVX2]
Thread count: 64 physical cores, 128 logical processors, using up to 4 threads

Optimize a model with 60783 rows, 34921 columns and 831994 nonzeros
Model fingerprint: 0x84260414
Model has 2800 quadratic constraints
Variable types: 32021 continuous, 2900 integer (2900 binary)
Coefficient statistics:
  Matrix range     [3e-04, 1e+05]
  QMatrix range    [2e-03, 8e-03]
  QLMatrix range   [5e-02, 6e+01]
  Objective range  [1e+00, 1e+00]
  Bounds range     [1e+00, 1e+00]
  RHS range        [1e+00, 1e+05]
Presolve removed 49201 rows and 15090 columns
Presolve time: 0.35s
Presolved: 11582 rows, 19831 columns, 73144 nonzeros
Presolved model has 2800 quadratic constraint(s)
Variable types: 16974 continuous, 2857 integer (2857 binary)

Root relaxation: objective 8.563653e+04, 9145 iterations, 0.24 seconds (0.33 work units)

    Nodes    |    Current Node    |     Objective Bounds      |     Work
 Expl Unexpl |  Obj  Depth IntInf | Incumbent    BestBd   Gap | It/Node Time

     0     0 85636.5280    0    3          - 85636.5280      -     -    0s
     0     0 390781.477    0  750          - 390781.477      -     -    1s
     0     0 466186.963    0  710          - 466186.963      -     -    1s
     0     0 765163.062    0  708          - 765163.062      -     -    1s
     0     0 765244.478    0  557          - 765244.478      -     -    1s
     0     0 765662.372    0  445          - 765662.372      -     -    1s
     0     0 765666.536    0  445          - 765666.536      -     -    1s
     0     0 765813.509    0  445          - 765813.509      -     -    2s
     0     0 765813.643    0  445          - 765813.643      -     -    2s
     0     2 765863.811    0  445          - 765863.811      -     -    2s
   341   373 766816.972   91  284          - 766161.523      -  66.7    5s
H  685   310                    766817.35148 766163.289  0.09%  45.0    6s
*  685   310             272    766817.35148 766163.289  0.09%  45.0    6s

Cutting planes:
  Gomory: 4
  Implied bound: 335
  MIR: 84
  Flow cover: 112

Explored 774 nodes (57687 simplex iterations) in 7.13 seconds (9.13 work units)
Thread count was 4 (of 128 available processors)

Solution count 2: 766817 766817 

Optimal solution found (tolerance 1.00e-03)
Warning: max constraint violation (2.4782e-07) exceeds tolerance
Best objective 7.668173514838e+05, best bound 7.661633546874e+05, gap 0.0853%
